4 10 6 15 18 17 8 14 12 0 11 9 19 16 5 13 7 1 2 3  
4 10 6 15 8 17 18 14 12 0 11 9 19 16 5 2 7 3 1 13  
4 10 6 15 18 17 8 14 12 0 11 9 19 16 5 2 13 7 3 1  
4 10 6 18 15 17 8 14 12 5 11 9 2 19 0 1 7 13 16 3  
4 10 6 18 15 17 8 14 11 12 0 9 19 16 5 13 2 7 3 1  
6 10 4 15 18 17 8 14 11 12 0 16 9 19 5 2 7 1 13 3  
4 10 6 18 15 14 7 8 5 9 11 19 12 0 17 1 2 13 16 3  
4 10 6 15 8 17 18 14 12 0 11 9 19 16 5 2 7 1 13 3  
4 10 6 15 8 17 18 14 11 0 12 9 19 16 5 2 13 7 3 1  
4 10 6 15 18 17 8 14 11 0 12 9 19 16 5 2 13 7 3 1  
4 10 6 18 15 17 8 14 12 5 11 9 19 0 16 1 7 13 2 3  
4 10 6 18 11 17 8 14 12 5 0 15 9 16 13 2 1 7 3 19  
4 10 6 18 15 17 8 14 12 5 11 9 7 19 0 1 2 13 16 3  
4 10 6 18 15 17 8 14 12 5 11 9 2 19 0 1 7 13 16 3  
4 10 6 18 15 14 7 8 5 9 19 11 12 0 17 1 2 13 16 3  
4 10 6 15 8 17 18 14 12 0 11 9 13 16 5 2 7 1 19 3  
4 10 6 18 15 14 7 8 5 9 11 19 17 12 0 1 13 2 16 3  
4 10 6 15 18 17 8 14 11 12 0 9 19 16 5 7 2 3 1 13  
4 10 6 18 15 11 17 8 14 12 0 9 13 16 5 2 7 3 1 19  
4 10 6 15 18 17 8 14 11 12 0 9 19 16 5 13 2 1 7 3  
4 10 6 18 15 17 8 14 12 7 11 0 1 5 9 13 2 19 16 3  
4 10 6 18 15 17 8 14 12 5 0 11 16 9 13 2 1 7 3 19  
4 10 6 18 15 17 8 14 11 12 5 9 13 16 0 2 7 1 3 19  
4 10 6 15 18 17 8 14 11 12 0 9 13 16 5 7 2 3 1 19  
6 10 4 15 18 17 8 14 12 7 11 0 1 5 9 13 2 19 16 3  
4 10 6 18 15 17 8 14 11 12 5 9 13 16 0 2 7 3 1 19  
4 10 6 18 15 17 8 14 11 12 0 9 19 16 5 13 2 3 1 7  
4 10 6 18 15 17 8 14 12 5 0 11 16 9 13 2 7 1 3 19  
4 10 6 15 8 17 18 14 11 12 0 9 19 16 5 7 2 3 1 13  
4 10 6 15 8 17 18 14 11 12 0 9 19 16 5 2 13 7 3 1  
4 10 18 15 6 17 8 14 11 12 5 9 2 19 0 1 7 13 16 3  
4 10 6 18 15 17 8 14 12 11 5 9 2 19 0 1 7 13 16 3  
4 10 6 18 15 17 8 14 11 16 5 0 1 7 9 13 2 19 12 3  
